p cnf 22 8
e 1 2 0
a 3 4 5 0
e 6 7 0
a 8 0
e 9 0
a 10 0
e 11 12 0
a 13 0
e 14 0
a 15 16 17 18 0
e 19 0
a 20 0
e 21 22 0
8 -5 -7 -20 -22 0
3 -6 0
-4 -20 10 -22 0
-16 14 7 -5 0
-3 -10 17 1 0
-4 -1 3 17 6 0
16 18 0
21 -19 -10 5 0
